NAME : RAT99B
TYPE : PDTSP
DIMENSION : 99
EDGE_WEIGHT_TYPE : EUC_2D
NODE_COORD_SECTION
1 6 4
2 15 15
3 24 18
4 33 12
5 48 12
6 57 14
7 67 10
8 77 10
9 86 15
10 6 21
11 17 26
12 23 25
13 32 35
14 43 23
15 55 35
16 65 36
17 78 39
18 87 35
19 3 53
20 12 44
21 28 53
22 33 49
23 47 46
24 55 52
25 64 50
26 71 57
27 87 57
28 4 72
29 15 78
30 22 70
31 34 71
32 42 79
33 54 77
34 66 79
35 78 67
36 87 73
37 7 81
38 17 95
39 26 98
40 32 97
41 43 88
42 57 89
43 64 85
44 78 83
45 83 98
46 5 109
47 13 111
48 25 102
49 38 119
50 46 107
51 58 110
52 67 110
53 74 113
54 88 110
55 2 124
56 17 134
57 23 129
58 36 131
59 42 137
60 53 123
61 63 135
62 72 134
63 87 129
64 2 146
65 16 147
66 25 153
67 38 155
68 42 158
69 57 154
70 66 151
71 73 151
72 86 149
73 5 177
74 13 162
75 25 169
76 35 177
77 46 172
78 54 166
79 65 174
80 73 161
81 86 162
82 2 195
83 14 196
84 28 189
85 38 187
86 46 195
87 57 194
88 63 188
89 77 193
90 85 194
91 8 211
92 12 217
93 22 210
94 34 216
95 47 203
96 58 213
97 66 206
98 78 210
99 85 204
PICKUP_AND_DELIVERY_SECTION
1 0 0 0 0 0 0
2 0 0 0 0 10 0
3 0 0 0 0 12 0
4 0 0 0 0 16 0
5 0 0 0 0 21 0
6 0 0 0 0 0 18
7 0 0 0 0 95 0
8 0 0 0 0 0 28
9 0 0 0 0 17 0
10 0 0 0 0 0 2
11 0 0 0 0 30 0
12 0 0 0 0 0 3
13 0 0 0 0 0 20
14 0 0 0 0 0 15
15 0 0 0 0 14 0
16 0 0 0 0 0 4
17 0 0 0 0 0 9
18 0 0 0 0 6 0
19 0 0 0 0 31 0
20 0 0 0 0 13 0
21 0 0 0 0 0 5
22 0 0 0 0 0 24
23 0 0 0 0 37 0
24 0 0 0 0 22 0
25 0 0 0 0 0 65
26 0 0 0 0 35 0
27 0 0 0 0 0 77
28 0 0 0 0 8 0
29 0 0 0 0 39 0
30 0 0 0 0 0 11
31 0 0 0 0 0 19
32 0 0 0 0 0 33
33 0 0 0 0 32 0
34 0 0 0 0 45 0
35 0 0 0 0 0 26
36 0 0 0 0 0 60
37 0 0 0 0 0 23
38 0 0 0 0 40 0
39 0 0 0 0 0 29
40 0 0 0 0 0 38
41 0 0 0 0 0 42
42 0 0 0 0 41 0
43 0 0 0 0 0 53
44 0 0 0 0 51 0
45 0 0 0 0 0 34
46 0 0 0 0 73 0
47 0 0 0 0 48 0
48 0 0 0 0 0 47
49 0 0 0 0 56 0
50 0 0 0 0 61 0
51 0 0 0 0 0 44
52 0 0 0 0 0 78
53 0 0 0 0 43 0
54 0 0 0 0 0 62
55 0 0 0 0 58 0
56 0 0 0 0 0 49
57 0 0 0 0 0 91
58 0 0 0 0 0 55
59 0 0 0 0 0 68
60 0 0 0 0 36 0
61 0 0 0 0 0 50
62 0 0 0 0 54 0
63 0 0 0 0 72 0
64 0 0 0 0 74 0
65 0 0 0 0 25 0
66 0 0 0 0 0 88
67 0 0 0 0 0 75
68 0 0 0 0 59 0
69 0 0 0 0 71 0
70 0 0 0 0 79 0
71 0 0 0 0 0 69
72 0 0 0 0 0 63
73 0 0 0 0 0 46
74 0 0 0 0 0 64
75 0 0 0 0 67 0
76 0 0 0 0 0 96
77 0 0 0 0 27 0
78 0 0 0 0 52 0
79 0 0 0 0 0 70
80 0 0 0 0 92 0
81 0 0 0 0 0 99
82 0 0 0 0 84 0
83 0 0 0 0 85 0
84 0 0 0 0 0 82
85 0 0 0 0 0 83
86 0 0 0 0 0 87
87 0 0 0 0 86 0
88 0 0 0 0 66 0
89 0 0 0 0 94 0
90 0 0 0 0 98 0
91 0 0 0 0 57 0
92 0 0 0 0 0 80
93 0 0 0 0 97 0
94 0 0 0 0 0 89
95 0 0 0 0 0 7
96 0 0 0 0 76 0
97 0 0 0 0 0 93
98 0 0 0 0 0 90
99 0 0 0 0 81 0
DEPOT_SECTION
1 
-1
EOF
